722065
719760
719760
718678
706183
706183
704238
700907
700907
694500
681225
681225
677163
677163
675425
663801
663801
658552
658552
658552
658552
649896
649896
647636
616835
616835
616835
616835
616835
616835
616835
616835
616835
616835
616835
611816
611816
611816
611816
611816
606311
606311
606311
595165
595165
588672
588672
588672
587759
587759
587759
581403
574521
574521
574521
574521
574521
574521
574521
574521
574521
574521
574324
568339
555870
555870
555870
555870
555870
555870
555870
555870
555870
555870
555870
545056
545056
545056
545056
545056
535537
535537
535537
535537
535537
532722
532722
532722
532722
532722
530292
530292
530292
530292
530292
530292
524106
524106
521286
521286
